* Signature: 0x8aa3505face9829b
NAME netflow
ROWS
 N  OBJ
 L  c0      
 L  c1      
 L  c2      
 L  c3      
 L  c4      
 L  c5      
 E  c6      
 E  c7      
 E  c8      
 E  c9      
 E  c10     
 E  c11     
 E  c12     
 E  c13     
 E  c14     
 E  c15     
COLUMNS
    C0(3)     OBJ       10
    C0(3)     c0        1
    C0(3)     c6        1
    C0(3)     c8        -1
    C1(3)     OBJ       20
    C1(3)     c1        1
    C1(3)     c6        1
    C1(3)     c9        -1
    C2(3)     OBJ       60
    C2(3)     c2        1
    C2(3)     c6        1
    C2(3)     c10       -1
    C3(3)     OBJ       40
    C3(3)     c3        1
    C3(3)     c7        1
    C3(3)     c8        -1
    C4(3)     OBJ       40
    C4(3)     c4        1
    C4(3)     c7        1
    C4(3)     c9        -1
    C5(3)     OBJ       30
    C5(3)     c5        1
    C5(3)     c7        1
    C5(3)     c10       -1
    C6(3)     OBJ       20
    C6(3)     c0        1
    C6(3)     c11       1
    C6(3)     c13       -1
    C7(3)     OBJ       20
    C7(3)     c1        1
    C7(3)     c11       1
    C7(3)     c14       -1
    C8(3)     OBJ       80
    C8(3)     c2        1
    C8(3)     c11       1
    C8(3)     c15       -1
    C9(3)     OBJ       60
    C9(3)     c3        1
    C9(3)     c12       1
    C9(3)     c13       -1
    C10(3)    OBJ       70
    C10(3)    c4        1
    C10(3)    c12       1
    C10(3)    c14       -1
    C11(3)    OBJ       30
    C11(3)    c5        1
    C11(3)    c12       1
    C11(3)    c15       -1
RHS
    RHS1      c0        100
    RHS1      c1        80
    RHS1      c2        120
    RHS1      c3        120
    RHS1      c4        120
    RHS1      c5        120
    RHS1      c6        50
    RHS1      c7        60
    RHS1      c8        -50
    RHS1      c9        -50
    RHS1      c10       -10
    RHS1      c11       60
    RHS1      c12       40
    RHS1      c13       -40
    RHS1      c14       -30
    RHS1      c15       -30
BOUNDS
ENDATA
